c --- [ banner ] -------------------------------------------------------------
c 
c CaDiCaL Radically Simplified CDCL SAT Solver
c Copyright (c) 2016-2021 A. Biere, M. Fleury, N. Froleyks
c 
c Version 1.5.2 a5f15211db36c3956764e18194dd5bd63bf3b5e6
c g++ (GCC) 9.3.0 -Wall -Wextra -O3 -DNDEBUG
c Fri Oct 21 01:27:37 EDT 2022 Linux gra-login3 3.10.0-1160.66.1.el7.x86_64 x86_64
c 
c --- [ limit ] --------------------------------------------------------------
c 
c setting conflict limit to 200000 conflicts (due to '200000')
c 
c --- [ parsing input ] ------------------------------------------------------
c 
c reading DIMACS file from '33.cubes2585.adj'
c opening file to read '33.cubes2585.adj'
c found 'p cnf 6160 1595475' header
c parsed 1595475 clauses in 17.22 seconds process time
c closing file '33.cubes2585.adj'
c after reading 1457566774 bytes 1390.0 MB
c 
c --- [ options ] ------------------------------------------------------------
c 
c all options are set to their default value
c 
c --- [ solving ] ------------------------------------------------------------
c 
c time measured in process time since initialization
c 
c  seconds    reductions  redundant   irredundant
c          MB     restarts       trail       variables
c            level   conflicts       glue         remaining
c 
c * 17.22 1377  0 0   0    0    0  0% 0 1595422 2389 39%
c { 18.06 1419  0 0   0    0    0  0% 0 1595422 2389 39%
c i 22.27 1496 314 0  13  126   86 27% 17 1595422 2388 39%
c i 22.35 1496 307 0  14  129   88 27% 17 1595422 2387 39%
c i 22.45 1497 302 0  16  136   91 27% 18 1595422 2386 39%
c i 23.18 1503 248 0  26  182  130 27% 27 1595422 2351 38%
c i 24.40 1507 212 0  32  219  162 27% 26 1595422 2350 38%
c i 24.58 1507 201 0  32  232  170 27% 25 1595422 2349 38%
c i 24.59 1507 200 0  32  233  170 27% 25 1595422 2348 38%
c i 24.87 1507 191 0  32  249  182 27% 26 1595422 2347 38%
c i 24.97 1507 186 0  34  261  189 27% 26 1595422 2346 38%
c i 25.02 1508 185 0  35  264  191 27% 27 1595422 2345 38%
c - 29.49 1490 179 1  43  302  221 27% 32 314581 2345 38%
c i 29.95 1382 170 1  48  328  244 27% 32 314581 2344 38%
c i 29.99 1382 170 1  50  333  248 27% 33 314581 2343 38%
c i 30.02 1382 169 1  51  336  250 27% 33 314581 2342 38%
c i 30.12 1382 166 1  53  345  257 27% 32 314581 2341 38%
c i 30.21 1382 162 1  54  355  266 27% 32 314581 2340 38%
c i 30.26 1382 161 1  54  362  271 27% 32 314581 2339 38%
c i 30.75 1382 158 1  61  404  309 27% 32 314581 2338 38%
c 
c  seconds     reductions  redundant   irredundant
c          MB      restarts       trail       variables
c             level   conflicts       glue         remaining
c 
c i 30.76 1382 157 1  62  406  310 27% 32 314581 2337 38%
c i 31.02 1382 157 1  63  419  322 27% 33 314581 2335 38%
c i 31.13 1382 155 1  64  425  327 27% 32 314581 2334 38%
c i 31.47 1382 157 1  69  443  341 27% 34 314581 2333 38%
c i 32.19 1382 146 1  84  523  406 27% 35 314581 2332 38%
c i 32.23 1382 141 1  84  546  422 28% 35 314581 2331 38%
c i 32.36 1382 125 1  84  657  501 28% 34 314581 2330 38%
c i 32.36 1382 125 1  84  662  505 28% 34 314581 2329 38%
c i 32.38 1382 122 1  84  684  523 28% 34 314581 2328 38%
c i 32.57 1382 121 1  86  703  539 28% 34 314581 2327 38%
c i 32.98 1382 116 1  91  765  591 28% 34 314581 2326 38%
c i 33.00 1382 116 1  91  771  596 28% 34 314581 2325 38%
c i 33.03 1383 113 1  91  797  616 28% 34 314581 2324 38%
c i 33.12 1383 112 1  91  809  623 28% 34 314581 2323 38%
c i 33.13 1383 112 1  91  810  623 28% 34 314581 2322 38%
c i 33.16 1383 112 1  91  813  625 28% 34 314581 2321 38%
c i 33.17 1383 111 1  91  820  629 28% 33 314581 2320 38%
c i 33.35 1383 105 1  91  908  699 28% 33 314581 2319 38%
c } 33.45 1383 99 1  93 1001  761 28% 33 314581 2319 38%
c [ 33.45 1383  0 1  93 1001  761  0% 0 314581 2319 38%
c 
c  seconds    reductions  redundant  irredundant
c          MB     restarts       trail      variables
c            level   conflicts       glue        remaining
c 
c O 33.47 1383  1 1  93 1002  762 14% 1 314581 2319 38%
c i 33.63 1383  8 1  93 1019  771 20% 6 314581 2318 38%
c i 33.70 1383 16 1  93 1031  782 25% 13 314581 2317 38%
c i 33.78 1383 21 1  93 1047  796 28% 17 314581 2316 38%
c i 33.79 1383 21 1  93 1050  798 28% 17 314581 2315 38%
c i 33.97 1382 23 1  93 1145  867 31% 19 314581 2314 38%
c i 33.99 1382 23 1  93 1150  871 31% 19 314581 2313 38%
c i 33.99 1382 23 1  93 1151  871 31% 19 314581 2312 38%
c i 34.06 1382 22 1  93 1195  898 31% 19 314581 2311 38%
c - 34.64 1524 22 2  93 1201  803 31% 18 314481 2311 38%
c i 34.74 1524 22 2  93 1219  816 31% 18 314481 2310 38%
c i 34.86 1524 22 2  93 1256  840 31% 18 314481 2309 37%
c i 35.40 1524 26 2  93 1669 1132 31% 22 314481 2308 37%
c i 35.47 1524 26 2  93 1701 1159 31% 22 314481 2307 37%
c i 35.47 1524 26 2  93 1703 1160 31% 22 314481 2306 37%
c i 35.62 1524 26 2  93 1812 1241 31% 23 314481 2305 37%
c i 35.67 1524 26 2  93 1837 1258 31% 22 314481 2304 37%
c i 36.13 1524 25 2  94 2106 1425 31% 21 314481 2303 37%
c i 36.31 1524 25 2  94 2156 1458 31% 21 314481 2302 37%
c i 36.36 1524 25 2  94 2188 1484 31% 21 314481 2301 37%
c 
c  seconds    reductions  redundant   irredundant
c          MB     restarts       trail       variables
c            level   conflicts       glue         remaining
c 
c i 36.74 1524 24 2  94 2392 1610 31% 20 314481 2300 37%
c i 36.88 1524 24 2  94 2446 1639 31% 20 314481 2299 37%
c - 37.44 1521 23 3  94 2550 1274 31% 20 314445 2299 37%
c ] 38.48 1521 21 3  94 3003 1572 51% 18 314445 2299 37%
c { 38.48 1521 99 3  94 3003 1572 76% 33 314445 2299 37%
c F 38.53 1521 99 3  94 3004 1573 76% 33 314445 2299 37%
c i 39.04 1521 97 3  97 3055 1618 74% 33 314445 2298 37%
c i 39.28 1521 98 3  99 3066 1628 74% 33 314445 2297 37%
c i 39.30 1521 97 3 100 3070 1631 74% 33 314445 2296 37%
c i 39.77 1521 89 3 103 3260 1798 71% 33 314445 2295 37%
c i 40.14 1521 87 3 110 3326 1852 69% 33 314445 2294 37%
c i 40.98 1521 85 3 123 3465 1946 66% 33 314445 2293 37%
c i 41.16 1521 84 3 125 3493 1972 66% 33 314445 2292 37%
c i 41.56 1521 83 3 134 3550 2025 65% 33 314445 2291 37%
c i 41.68 1521 82 3 134 3569 2042 65% 33 314445 2290 37%
c i 41.69 1521 82 3 134 3572 2044 65% 33 314445 2289 37%
c i 41.86 1521 81 3 134 3618 2072 64% 32 314445 2288 37%
c - 42.84 1518 65 4 134 4348 1933 59% 30 314412 2288 37%
c d 44.38 1519 58 4 135 5000 2423 57% 29 314377 2274 37%
c 2 44.45 1519 58 4 135 5000 3526 57% 29 314366 2274 37%
c 
c  seconds    reductions  redundant   irredundant
c          MB     restarts       trail       variables
c            level   conflicts       glue         remaining
c 
c p 51.19 1519 58 4 135 5000 6001 57% 29 314366 2190 36%
c d 51.74 1519 58 4 135 5000 5899 57% 29 313726 2189 36%
c # 53.13 1519 48 4 135 6006 6436 55% 26 313726 2189 36%
c - 53.92 1385 44 5 135 6594 2407 54% 24 313726 2189 36%
c } 54.14 1385 42 5 135 7005 2693 54% 23 313726 2189 36%
c [ 54.14 1385 21 5 135 7005 2693 51% 18 313726 2189 36%
c - 55.49 1385 22 6 137 9289 2786 51% 19 313726 2189 36%
c I 55.96 1386 22 6 137 10007 3190 51% 19 313726 2189 36%
c - 62.93 1385 31 7 139 12433 3642 50% 25 313726 2189 36%
c p 68.35 1385 35 7 140 15001 9259 50% 28 313726 2189 36%
c ] 68.52 1385 35 7 140 15005 9263 50% 28 313726 2189 36%
c { 68.52 1385 42 7 140 15005 9263 54% 23 313726 2189 36%
c B 68.57 1385 42 7 140 15012 9267 54% 23 313726 2189 36%
c - 71.50 1385 40 8 173 16026 4562 53% 23 313726 2189 36%
c s 73.49 1386 34 8 181 18767 6556 51% 21 311837 2189 36%
c v 79.51 1386 34 8 181 18767 6556 51% 21 311829 2189 36%
c t 79.67 1386 34 8 181 18767 6541 51% 21 311822 2189 36%
c e 80.46 1388 34 8 181 18767 6112 51% 21 309160 812 13%
c s 80.56 1388 34 8 181 18767 6112 51% 21 308629 812 13%
c - 83.99 1388 33 9 215 20066 4967 71% 21 308629 812 13%
c 
c  seconds    reductions   redundant   irredundant
c          MB     restarts        trail       variables
c            level    conflicts       glue        remaining
c 
c W 88.48 1388 35 9 392 21013 5763 71% 22 308629 812 13%
c - 99.67 1387 35 10 602 24534 5690 72% 22 308629 812 13%
c F 108.28 1387 33 10 786 28015 8127 72% 21 308629 812 13%
c - 109.71 1387 32 11 794 29454 6163 72% 21 308629 812 13%
c 3 110.02 1388 32 11 794 30001 6889 73% 21 308629 812 13%
c p 114.36 1388 32 11 794 30001 8334 73% 21 308629 811 13%
c } 115.34 1388 31 11 794 31005 8958 73% 20 308629 811 13%
c [ 115.34 1388 35 11 794 31005 8958 141% 28 308629 811 13%
c ] 115.87 1388 34 11 794 32104 9576 133% 27 308629 811 13%
c 1 115.87 1388 34 11 794 32104 9576 133% 27 308629 811 13%
c 
c --- [ writing output ] -----------------------------------------------------
c 
c writing simplified CNF to DIMACS file 'simp/33.cubes2585.adj.simp1'
c * 115.87 1388 34 11 794 32104 9576 133% 27 308629 811 13%
c opening file to write 'simp/33.cubes2585.adj.simp1'
c writing 'p cnf 6160 308626' header
c closing file 'simp/33.cubes2585.adj.simp1'
c after writing 136967321 bytes 130.6 MB
c wrote 308626 clauses in 0.86 seconds process time
c 
c --- [ writing extension ] --------------------------------------------------
c 
c writing extension stack to 'simp/33.cubes2585.adj.ext1'
c opening file to write 'simp/33.cubes2585.adj.ext1'
c closing file 'simp/33.cubes2585.adj.ext1'
c after writing 89448 bytes 0.1 MB
c wrote 3978 witnesses in 0.00 seconds process time
c 
c --- [ result ] -------------------------------------------------------------
c 
s SATISFIABLE
c 
c --- [ run-time profiling ] -------------------------------------------------
c 
c process time taken by individual solving procedures
c (percentage relative to process time for solving)
c 
c        76.42   77.47% search
c        57.49   58.28% unstable
c        22.22   22.53% simplify
c        17.80   18.04% stable
c        17.22   17.46% parse
c        13.07   13.25% probe
c         6.13    6.22% vivify
c         1.45    1.47% elim
c         0.84    0.85% lucky
c         0.29    0.29% walk
c         0.20    0.20% subsume
c         0.13    0.13% ternary
c   =================================
c        98.65   84.51% solve
c 
c last line shows process time for solving
c (percentage relative to total process time)
c 
c --- [ statistics ] ---------------------------------------------------------
c 
c chronological:              6397        19.93 %  of conflicts
c conflicts:                 32104       325.44    per second
c decisions:                 88183       893.91    per second
c eliminated:                 1377        22.35 %  of all variables
c fixed:                       813        13.20 %  of all variables
c learned:                   31310        97.53 %  per conflict
c learned_lits:            5317398       100.00 %  learned literals
c minimized:                     0         0.00 %  learned literals
c shrunken:                3392664        63.80 %  learned literals
c minishrunken:             387155         7.28 %  learned literals
c propagations:            3538303         0.04 M  per second
c reduced:                   14724        45.86 %  per conflict
c rephased:                      7      4586.29    interval
c restarts:                    794        40.43    interval
c stabilizing:                   3        34.58 %  of conflicts
c substituted:                  15         0.24 %  of all variables
c subsumed:                  10799         0.32 %  of all clauses
c strengthened:               4077         0.12 %  of all clauses
c ternary:                    2653         0.60 %  of resolved
c vivified:                     22         0.00 %  of all clauses
c walked:                        1     32104.00    interval
c weakened:                   3165         3.02    average size
c 
c seconds are measured in process time for solving
c 
c --- [ resources ] ----------------------------------------------------------
c 
c total process time since initialization:       116.74    seconds
c total real time since initialization:          118.19    seconds
c maximum resident set size of process:         1662.40    MB
c 
c --- [ shutting down ] ------------------------------------------------------
c 
c exit 10
WARNING! DIMACS header mismatch: wrong number of variables.
============================[ Problem Statistics ]=============================
|                                                                             |
|  Number of variables:          3243                                         |
|  Number of clauses:          308626                                         |
|  Parse time:                   1.99 s                                       |
|  Simplification time:          0.10 s                                       |
|                                                                             |
============================[ Search Statistics ]====================================================
| Conflicts |          ORIGINAL         |          LEARNT          | Num Sols |      SUBGRAPHS      |
|           |    Vars  Clauses Literals |    Limit  Clauses Lit/Cl |          | Canonical Noncanon. |
=====================================================================================================
|       103 |    3150   308629 29749183 |     2000      103    100 |        0 |        24         3 |
|       582 |    3150   308958 29753769 |     2000      582     32 |        0 |       130       332 |
|       902 |    3150   309053 29755280 |     2000      902     40 |        0 |       189       427 |
|      1299 |    3150   309113 29756079 |     2000     1299     54 |        0 |       219       487 |
|      1955 |    3150   309263 29758726 |     2000     1955     58 |        0 |       270       637 |
|      4164 |    3150   310713 29780683 |     3603     3167     20 |        0 |       646      2087 |
|      5340 |    3150   310750 29781378 |     5002     2542     30 |        0 |       668      2124 |
|     12787 |    3150   316489 29871374 |     7559     4346     14 |        0 |      1703      7863 |
|     15892 |    3150   317032 29882480 |     7559     7451     42 |        0 |      1866      8406 |
|     25245 |    3150   322541 29967339 |     9996     8641     24 |        0 |      2688     13915 |
|     33104 |    3150   324634 29995276 |    12409     5913     14 |        0 |      2986     16008 |
|     43027 |    3150   325908 30013909 |    13605     9632     39 |        0 |      3310     17282 |
|     62411 |    3150   332318 30094841 |    16007    14818     43 |        0 |      3847     23692 |
|     88458 |    3150   338904 30177791 |    19614    15072     32 |        0 |      4542     30278 |
|    120546 |    3128   341799 30209778 |    23210    15955     37 |        0 |      5041     33174 |
=====================================================================================================
Number of solutions   : 0
Canonical subgraphs   : 5179           (16 /sec)
          order  3    : 1              (200000 /sec)
          order  4    : 1              (500000 /sec)
          order  5    : 1              (200000 /sec)
          order  6    : 1              (40000 /sec)
          order  7    : 1              (6369 /sec)
          order  8    : 2              (1094 /sec)
          order  9    : 6              (285 /sec)
          order 10    : 24             (84 /sec)
          order 11    : 112            (29 /sec)
          order 12    : 614            (16 /sec)
          order 13    : 2526           (17 /sec)
          order 14    : 759            (30 /sec)
          order 15    : 163            (18 /sec)
          order 16    : 428            (12 /sec)
          order 17    : 207            (8 /sec)
          order 18    : 260            (10 /sec)
          order 19    : 63             (11 /sec)
          order 20    : 5              (13 /sec)
          order 21    : 5              (12 /sec)
          order 22    : 0              (-nan /sec)
Noncanonical subgraphs: 33791          (650 /sec)
          order  3    : 0              (-nan /sec)
          order  4    : 0              (-nan /sec)
          order  5    : 0              (-nan /sec)
          order  6    : 0              (-nan /sec)
          order  7    : 0              (-nan /sec)
          order  8    : 0              (-nan /sec)
          order  9    : 0              (-nan /sec)
          order 10    : 0              (-nan /sec)
          order 11    : 0              (-nan /sec)
          order 12    : 0              (-nan /sec)
          order 13    : 5061           (6926 /sec)
          order 14    : 24888          (736 /sec)
          order 15    : 1304           (1254 /sec)
          order 16    : 1481           (572 /sec)
          order 17    : 797            (90 /sec)
          order 18    : 252            (60 /sec)
          order 19    : 0              (-nan /sec)
          order 20    : 0              (-nan /sec)
          order 21    : 0              (-nan /sec)
Canonicity checking   : 322.802 s
Noncanonicity checking: 51.9753 s
Total canonicity time : 374.778 s
database reductions   : 18
restarts              : 358
conflicts             : 131136         (281 /sec)
decisions             : 215332         (0.00 % random) (462 /sec)
propagations          : 6129131        (13153 /sec)
conflict literals     : 9575329        (51.22 % deleted)
actual reward         : 0.238911
Memory used           : 372.00 MB
CPU time              : 465.995 s

UNSATISFIABLE
